language Essence 1.3

letting bot_end be
        [329, 298, 21, 22, 33, 96, 0, 231, 328, 320, 149, 330, 207, 88, 360, 285, 260, 133, 57, 3, 195; int(1..21)]
letting bot_start be
        [110, 63, 298, 333, 211, 354, 267, 3, 108, 46, 335, 20, 1, 288, 55, 18, 2, 334, 315, 248, 15; int(1..21)]
letting buffer_col be 2
letting buffer_row be 2
letting corridor_size be 1
letting n_shelves_col be 1
letting n_shelves_row be 24
letting shelf_col_size be 2
letting shelf_row_size be 1
